NAME
ROWS
 N  OBJ
 G  c1
 G  c2
 G  c3
 G  c4
 G  c5
 G  c6
 G  c7
 G  c8
 G  c9
 G  c10
 G  c11
 G  c12
 G  c13
 G  c14
 G  c15
 G  c16
 G  c17
 G  c18
 G  c19
 G  c20
 G  c21
 G  c22
 G  c23
 G  c24
 G  c25
 G  c26
 G  c27
 G  c28
 G  c29
 G  c30
 G  c31
 G  c32
 G  c33
 G  c34
 G  c35
 G  c36
 G  c37
 G  c38
 G  c39
 G  c40
 G  c41
 G  c42
 G  c43
 G  c44
 G  c45
 G  c46
 G  c47
 G  c48
 G  c49
 G  c50
COLUMNS
    MARKER    'MARKER'                 'INTORG'
    x[1]      c1        1
    x[1]      c21       1
    x[1]      c24       1
    x[1]      c29       1
    x[1]      c30       1
    x[1]      c32       1
    x[1]      c47       1
    x[1]      OBJ       1
    x[2]      c2        1
    x[2]      c3        1
    x[2]      c12       1
    x[2]      OBJ       1
    x[3]      c2        1
    x[3]      c3        1
    x[3]      c29       1
    x[3]      c33       1
    x[3]      OBJ       1
    x[4]      c4        1
    x[4]      c15       1
    x[4]      c45       1
    x[4]      OBJ       1
    x[5]      c5        1
    x[5]      c18       1
    x[5]      c20       1
    x[5]      c22       1
    x[5]      c32       1
    x[5]      c39       1
    x[5]      c47       1
    x[5]      OBJ       1
    x[6]      c6        1
    x[6]      c37       1
    x[6]      c47       1
    x[6]      OBJ       1
    x[7]      c7        1
    x[7]      c18       1
    x[7]      c22       1
    x[7]      c46       1
    x[7]      OBJ       1
    x[8]      c8        1
    x[8]      c12       1
    x[8]      c20       1
    x[8]      c31       1
    x[8]      c34       1
    x[8]      OBJ       1
    x[9]      c9        1
    x[9]      c10       1
    x[9]      c11       1
    x[9]      c14       1
    x[9]      c25       1
    x[9]      OBJ       1
    x[10]     c9        1
    x[10]     c10       1
    x[10]     c18       1
    x[10]     c19       1
    x[10]     c24       1
    x[10]     OBJ       1
    x[11]     c9        1
    x[11]     c11       1
    x[11]     c18       1
    x[11]     c29       1
    x[11]     c30       1
    x[11]     c32       1
    x[11]     c49       1
    x[11]     OBJ       1
    x[12]     c2        1
    x[12]     c8        1
    x[12]     c12       1
    x[12]     c19       1
    x[12]     c42       1
    x[12]     OBJ       1
    x[13]     c13       1
    x[13]     c16       1
    x[13]     c18       1
    x[13]     c34       1
    x[13]     c44       1
    x[13]     OBJ       1
    x[14]     c9        1
    x[14]     c14       1
    x[14]     c17       1
    x[14]     c24       1
    x[14]     c33       1
    x[14]     c40       1
    x[14]     OBJ       1
    x[15]     c4        1
    x[15]     c15       1
    x[15]     c18       1
    x[15]     c20       1
    x[15]     c24       1
    x[15]     c27       1
    x[15]     c28       1
    x[15]     c32       1
    x[15]     c35       1
    x[15]     c37       1
    x[15]     c42       1
    x[15]     OBJ       1
    x[16]     c13       1
    x[16]     c16       1
    x[16]     c22       1
    x[16]     c25       1
    x[16]     c26       1
    x[16]     c29       1
    x[16]     OBJ       1
    x[17]     c14       1
    x[17]     c17       1
    x[17]     c30       1
    x[17]     c31       1
    x[17]     c44       1
    x[17]     OBJ       1
    x[18]     c5        1
    x[18]     c7        1
    x[18]     c10       1
    x[18]     c11       1
    x[18]     c13       1
    x[18]     c15       1
    x[18]     c18       1
    x[18]     c19       1
    x[18]     c47       1
    x[18]     OBJ       1
    x[19]     c10       1
    x[19]     c12       1
    x[19]     c18       1
    x[19]     c19       1
    x[19]     c23       1
    x[19]     c24       1
    x[19]     c34       1
    x[19]     c35       1
    x[19]     c50       1
    x[19]     OBJ       1
    x[20]     c5        1
    x[20]     c8        1
    x[20]     c15       1
    x[20]     c20       1
    x[20]     c30       1
    x[20]     c42       1
    x[20]     OBJ       1
    x[21]     c1        1
    x[21]     c21       1
    x[21]     c44       1
    x[21]     c45       1
    x[21]     OBJ       1
    x[22]     c5        1
    x[22]     c7        1
    x[22]     c16       1
    x[22]     c22       1
    x[22]     c26       1
    x[22]     c27       1
    x[22]     c33       1
    x[22]     c42       1
    x[22]     c50       1
    x[22]     OBJ       1
    x[23]     c19       1
    x[23]     c23       1
    x[23]     c26       1
    x[23]     OBJ       1
    x[24]     c1        1
    x[24]     c10       1
    x[24]     c14       1
    x[24]     c15       1
    x[24]     c19       1
    x[24]     c24       1
    x[24]     c41       1
    x[24]     c43       1
    x[24]     c48       1
    x[24]     OBJ       1
    x[25]     c9        1
    x[25]     c16       1
    x[25]     c25       1
    x[25]     c26       1
    x[25]     c30       1
    x[25]     c32       1
    x[25]     c43       1
    x[25]     OBJ       1
    x[26]     c16       1
    x[26]     c22       1
    x[26]     c23       1
    x[26]     c25       1
    x[26]     c26       1
    x[26]     c44       1
    x[26]     c45       1
    x[26]     c46       1
    x[26]     OBJ       1
    x[27]     c15       1
    x[27]     c22       1
    x[27]     c27       1
    x[27]     c31       1
    x[27]     c38       1
    x[27]     c40       1
    x[27]     c42       1
    x[27]     OBJ       1
    x[28]     c15       1
    x[28]     c28       1
    x[28]     c29       1
    x[28]     c39       1
    x[28]     c49       1
    x[28]     OBJ       1
    x[29]     c1        1
    x[29]     c3        1
    x[29]     c11       1
    x[29]     c16       1
    x[29]     c28       1
    x[29]     c29       1
    x[29]     c31       1
    x[29]     c32       1
    x[29]     c34       1
    x[29]     c49       1
    x[29]     OBJ       1
    x[30]     c1        1
    x[30]     c11       1
    x[30]     c17       1
    x[30]     c20       1
    x[30]     c25       1
    x[30]     c30       1
    x[30]     c42       1
    x[30]     c49       1
    x[30]     OBJ       1
    x[31]     c8        1
    x[31]     c17       1
    x[31]     c27       1
    x[31]     c29       1
    x[31]     c31       1
    x[31]     c41       1
    x[31]     OBJ       1
    x[32]     c1        1
    x[32]     c5        1
    x[32]     c11       1
    x[32]     c15       1
    x[32]     c25       1
    x[32]     c29       1
    x[32]     c32       1
    x[32]     c40       1
    x[32]     c49       1
    x[32]     OBJ       1
    x[33]     c3        1
    x[33]     c14       1
    x[33]     c22       1
    x[33]     c33       1
    x[33]     OBJ       1
    x[34]     c8        1
    x[34]     c13       1
    x[34]     c19       1
    x[34]     c29       1
    x[34]     c34       1
    x[34]     OBJ       1
    x[35]     c15       1
    x[35]     c19       1
    x[35]     c35       1
    x[35]     c39       1
    x[35]     c47       1
    x[35]     OBJ       1
    x[36]     c36       1
    x[36]     OBJ       1
    x[37]     c6        1
    x[37]     c15       1
    x[37]     c37       1
    x[37]     c44       1
    x[37]     c50       1
    x[37]     OBJ       1
    x[38]     c27       1
    x[38]     c38       1
    x[38]     c46       1
    x[38]     OBJ       1
    x[39]     c5        1
    x[39]     c28       1
    x[39]     c35       1
    x[39]     c39       1
    x[39]     c45       1
    x[39]     OBJ       1
    x[40]     c14       1
    x[40]     c27       1
    x[40]     c32       1
    x[40]     c40       1
    x[40]     OBJ       1
    x[41]     c24       1
    x[41]     c31       1
    x[41]     c41       1
    x[41]     OBJ       1
    x[42]     c12       1
    x[42]     c15       1
    x[42]     c20       1
    x[42]     c22       1
    x[42]     c27       1
    x[42]     c30       1
    x[42]     c42       1
    x[42]     c43       1
    x[42]     c46       1
    x[42]     c49       1
    x[42]     OBJ       1
    x[43]     c24       1
    x[43]     c25       1
    x[43]     c42       1
    x[43]     c43       1
    x[43]     c49       1
    x[43]     OBJ       1
    x[44]     c13       1
    x[44]     c17       1
    x[44]     c21       1
    x[44]     c26       1
    x[44]     c37       1
    x[44]     c44       1
    x[44]     c45       1
    x[44]     OBJ       1
    x[45]     c4        1
    x[45]     c21       1
    x[45]     c26       1
    x[45]     c39       1
    x[45]     c44       1
    x[45]     c45       1
    x[45]     c46       1
    x[45]     OBJ       1
    x[46]     c7        1
    x[46]     c26       1
    x[46]     c38       1
    x[46]     c42       1
    x[46]     c45       1
    x[46]     c46       1
    x[46]     c49       1
    x[46]     OBJ       1
    x[47]     c1        1
    x[47]     c5        1
    x[47]     c6        1
    x[47]     c18       1
    x[47]     c35       1
    x[47]     c47       1
    x[47]     OBJ       1
    x[48]     c24       1
    x[48]     c48       1
    x[48]     c50       1
    x[48]     OBJ       1
    x[49]     c11       1
    x[49]     c28       1
    x[49]     c29       1
    x[49]     c30       1
    x[49]     c32       1
    x[49]     c42       1
    x[49]     c43       1
    x[49]     c46       1
    x[49]     c49       1
    x[49]     OBJ       1
    x[50]     c19       1
    x[50]     c22       1
    x[50]     c37       1
    x[50]     c48       1
    x[50]     c50       1
    x[50]     OBJ       1
    MARKER    'MARKER'                 'INTEND'
RHS
    rhs       c1        1
    rhs       c2        1
    rhs       c3        1
    rhs       c4        1
    rhs       c5        1
    rhs       c6        1
    rhs       c7        1
    rhs       c8        1
    rhs       c9        1
    rhs       c10       1
    rhs       c11       1
    rhs       c12       1
    rhs       c13       1
    rhs       c14       1
    rhs       c15       1
    rhs       c16       1
    rhs       c17       1
    rhs       c18       1
    rhs       c19       1
    rhs       c20       1
    rhs       c21       1
    rhs       c22       1
    rhs       c23       1
    rhs       c24       1
    rhs       c25       1
    rhs       c26       1
    rhs       c27       1
    rhs       c28       1
    rhs       c29       1
    rhs       c30       1
    rhs       c31       1
    rhs       c32       1
    rhs       c33       1
    rhs       c34       1
    rhs       c35       1
    rhs       c36       1
    rhs       c37       1
    rhs       c38       1
    rhs       c39       1
    rhs       c40       1
    rhs       c41       1
    rhs       c42       1
    rhs       c43       1
    rhs       c44       1
    rhs       c45       1
    rhs       c46       1
    rhs       c47       1
    rhs       c48       1
    rhs       c49       1
    rhs       c50       1
RANGES
BOUNDS
 BV bounds    x[1]
 BV bounds    x[2]
 BV bounds    x[3]
 BV bounds    x[4]
 BV bounds    x[5]
 BV bounds    x[6]
 BV bounds    x[7]
 BV bounds    x[8]
 BV bounds    x[9]
 BV bounds    x[10]
 BV bounds    x[11]
 BV bounds    x[12]
 BV bounds    x[13]
 BV bounds    x[14]
 BV bounds    x[15]
 BV bounds    x[16]
 BV bounds    x[17]
 BV bounds    x[18]
 BV bounds    x[19]
 BV bounds    x[20]
 BV bounds    x[21]
 BV bounds    x[22]
 BV bounds    x[23]
 BV bounds    x[24]
 BV bounds    x[25]
 BV bounds    x[26]
 BV bounds    x[27]
 BV bounds    x[28]
 BV bounds    x[29]
 BV bounds    x[30]
 BV bounds    x[31]
 BV bounds    x[32]
 BV bounds    x[33]
 BV bounds    x[34]
 BV bounds    x[35]
 BV bounds    x[36]
 BV bounds    x[37]
 BV bounds    x[38]
 BV bounds    x[39]
 BV bounds    x[40]
 BV bounds    x[41]
 BV bounds    x[42]
 BV bounds    x[43]
 BV bounds    x[44]
 BV bounds    x[45]
 BV bounds    x[46]
 BV bounds    x[47]
 BV bounds    x[48]
 BV bounds    x[49]
 BV bounds    x[50]
ENDATA
